240
222
201
192
157
255
230
183
293
217
278
346
246
310
223
239
377
186
275
246
212
251
358
320
279
260
285
263
170
305
231
213
253
224
296
237
239
181
245
256
348
291
359
262
191
249
188
187
335
185
192
247
291
278
237
311
217
390
342
303
196
178
338
284
252
266
225
174
386
253
260
282
301
281
420
246
322
220
194
190
153
222
282
263
167
215
219
231
267
395
126
244
214
216
234
211
210
377
273
277
